100
128
21
3
28
55
5
14
38
25
43
27
53
1
1
64
51
5
18
21
36
50
52
50
1
44
63
64
46
4
19
2
63
33
17
63
2
45
62
44
2
44
63
1
17
7
27
25
54
55
54
47
2
48
1
58
14
45
25
50
52
2
4
51
38
39
2
2
29
1
38
26
3
1
39
2
61
2
48
33
45
12
33
4
4
38
40
62
14
27
11
1
1
2
40
39
48
51
4
46
30
40